Resultate/BundeslaenderTour.txt
Gurobi 6.5.2: optimal solution; objective 13
237 simplex iterations
14 branch-and-cut nodes
plus 3 simplex iterations for intbasis
x [*,*]
:    1   2   3   4   5   6   7   8   9  10    :=
1    0   0   0   0   1   0   0   0   0   0
2    1   0   0   0   0   0   0   0   0   0
3    0   1   0   0   0   0   0   0   0   0
4    0   0   1   0   0   0   0   0   0   0
5    0   0   0   1   0   0   0   0   0   0
6    0   0   0   0   0   0   0   0   0   0
7    0   0   0   0   0   0   0   0   0   0
8    0   0   0   0   0   0   0   0   0   0
9    0   0   0   0   0   0   0   0   0   0
10   0   0   0   0   0   0   0   0   0   0
;

y [*] :=
 1  1
 2  1
 3  1
 4  1
 5  1
 6  0
 7  0
 8  0
 9  0
10  0
;

sum{i in 1 .. n, j in 1 .. n} x[i,j]*c[i,j] = 575.5

